Copyright (C) 2013-2015, Filipe Brandao
Build (method = -2)
  #dp: 8175
  Step-3' Graph: 104 vertices and 2725 arcs (0.01s)
  Step-4' Graph: 104 vertices and 2725 arcs (0.01s)
  #V4/#V3 = 1.00
  #A4/#A3 = 1.00
Ready! (0.01s)
Optimize a model with 193 rows, 2726 columns and 7982 nonzeros
Presolve removed 40 rows and 40 columns
Presolve time: 0.01s
Presolved: 153 rows, 2686 columns, 7864 nonzeros
Variable types: 0 continuous, 2686 integer (0 binary)
Found heuristic solution: objective 702.0000000
Optimize a model with 153 rows, 2686 columns and 7864 nonzeros
Presolved: 153 rows, 2686 columns, 7864 nonzeros

Root barrier log...

Ordering time: 0.00s

Barrier statistics:
 AA' NZ     : 5.221e+03
 Factor NZ  : 8.107e+03 (roughly 1 MByte of memory)
 Factor Ops : 5.805e+05 (less than 1 second per iteration)
 Threads    : 1

                  Objective                Residual
Iter       Primal          Dual         Primal    Dual     Compl     Time
   0   1.35938242e+04 -5.85691995e+04  1.08e+05 2.22e-16  1.24e+02     0s
   1   4.32407466e+03 -2.41394987e+04  2.09e+04 5.55e-16  2.58e+01     0s
   2   1.13306318e+03 -1.07079067e+04  2.08e+03 1.20e-14  3.99e+00     0s
   3   7.83147541e+02 -2.44582356e+03  8.72e+01 5.16e-15  6.40e-01     0s
   4   6.94282507e+02 -1.03133330e+03  2.27e-01 3.11e-15  3.18e-01     0s
   5   5.99468411e+02 -3.12508610e+02  1.42e-01 2.94e-15  1.68e-01     0s
   6   4.91715819e+02  3.14075024e+01  7.29e-02 2.70e-15  8.49e-02     0s
   7   4.02145124e+02  1.62730051e+02  3.22e-02 2.57e-15  4.42e-02     0s
   8   3.48890674e+02  2.19286611e+02  1.24e-02 3.42e-15  2.39e-02     0s
   9   3.36328009e+02  2.86914733e+02  7.23e-03 1.98e-15  9.11e-03     0s
  10   3.30074285e+02  2.99077711e+02  3.93e-03 3.22e-15  5.72e-03     0s
  11   3.26557162e+02  3.08152275e+02  1.74e-03 2.69e-15  3.39e-03     0s
  12   3.25029458e+02  3.14736214e+02  8.60e-04 2.66e-15  1.90e-03     0s
  13   3.23864320e+02  3.19245636e+02  3.47e-04 3.52e-15  8.52e-04     0s
  14   3.23626713e+02  3.20453684e+02  2.63e-04 3.76e-15  5.85e-04     0s
  15   3.23210243e+02  3.21352919e+02  1.25e-04 2.89e-15  3.42e-04     0s
  16   3.23068682e+02  3.22142879e+02  8.80e-05 2.48e-15  1.71e-04     0s
  17   3.22918846e+02  3.22295711e+02  4.82e-05 3.19e-15  1.15e-04     0s
  18   3.22869469e+02  3.22666227e+02  2.52e-05 2.63e-15  3.75e-05     0s
  19   3.22801290e+02  3.22788281e+02  8.95e-08 2.43e-15  2.40e-06     0s
  20   3.22800000e+02  3.22799999e+02  7.39e-13 2.77e-15  1.21e-10     0s
  21   3.22800000e+02  3.22800000e+02  7.96e-13 2.57e-15  1.21e-13     0s

Barrier solved model in 21 iterations and 0.03 seconds
Optimal objective 3.22800000e+02


Root relaxation: objective 3.228000e+02, 1853 iterations, 0.03 seconds

    Nodes    |    Current Node    |     Objective Bounds      |     Work
 Expl Unexpl |  Obj  Depth IntInf | Incumbent    BestBd   Gap | It/Node Time

     0     0  322.80000    0   52  702.00000  322.80000  54.0%     -    0s
H    0     0                     324.0000000  322.80000  0.37%     -    0s
H    0     0                     323.0000000  322.80000  0.06%     -    0s

Explored 0 nodes (2833 simplex iterations) in 0.14 seconds
Thread count was 1 (of 4 available processors)

Optimal solution found (tolerance 0.00e+00)
Best objective 3.230000000000e+02, best bound 3.230000000000e+02, gap 0.0%
Preprocessing time: 0.01 seconds
Gurobi run time: 0.14 seconds
Total run time: 0.15 seconds
Objective: 323
Solution:
8 x [i=1, i=76]
9 x [i=2, i=75]
7 x [i=3, i=74]
2 x [i=3, i=87, i=88]
6 x [i=4, i=73]
3 x [i=5, i=72]
2 x [i=6, i=71]
4 x [i=6, i=84, i=88]
6 x [i=7, i=70]
9 x [i=8, i=69]
6 x [i=9, i=68]
7 x [i=10, i=67]
1 x [i=10, i=80, i=88]
6 x [i=11, i=66]
11 x [i=12, i=65]
2 x [i=12, i=77, i=89]
6 x [i=13, i=64]
6 x [i=14, i=63]
1 x [i=14, i=77, i=87]
4 x [i=14, i=79, i=85]
1 x [i=15, i=62]
4 x [i=15, i=77, i=86]
2 x [i=15, i=78, i=85]
3 x [i=15, i=80, i=83]
2 x [i=15, i=81, i=82]
9 x [i=16, i=61]
6 x [i=17, i=60]
10 x [i=18, i=59]
3 x [i=18, i=78, i=82]
2 x [i=19, i=58]
1 x [i=19, i=73, i=86]
4 x [i=19, i=78, i=81]
5 x [i=20, i=57]
1 x [i=20, i=71, i=87]
1 x [i=20, i=79]
10 x [i=21, i=56]
9 x [i=22, i=55]
1 x [i=22, i=77, i=79]
2 x [i=23, i=66, i=89]
1 x [i=23, i=75, i=80]
2 x [i=23, i=77, i=78]
6 x [i=24, i=53]
3 x [i=24, i=70, i=84]
5 x [i=25, i=52]
4 x [i=26, i=77, i=87, i=89]
6 x [i=27, i=50]
4 x [i=28, i=49]
6 x [i=29, i=48]
4 x [i=29, i=68, i=81]
7 x [i=30, i=47]
1 x [i=30, i=61, i=87]
2 x [i=30, i=64, i=84]
1 x [i=30, i=73, i=75]
5 x [i=31, i=46]
6 x [i=32, i=45]
7 x [i=33, i=44]
7 x [i=34, i=43]
2 x [i=34, i=58, i=86]
3 x [i=34, i=59, i=85]
8 x [i=35, i=42]
2 x [i=35, i=59, i=84]
7 x [i=36, i=41]
1 x [i=36, i=70, i=84, i=89]
6 x [i=37, i=40]
2 x [i=37, i=62, i=79]
2 x [i=38, i=39]
1 x [i=38, i=54, i=86]
2 x [i=38, i=69, i=71]
1 x [i=38, i=72, i=81, i=88]
6 x [i=39, i=51, i=88]
1 x [i=39, i=60, i=79]
2 x [i=44, i=52, i=82]
2 x [i=45, i=51, i=82]
2 x [i=46, i=46, i=86]
4 x [i=49, i=49, i=80]
7 x [i=52, i=54, i=72]
1 x [i=54, i=60, i=64]
1 x [i=57, i=60, i=64]
1 x [i=62, i=73, i=73, i=86, i=86]
